p edge 275 274 122
e 1 225
e 1 235
e 1 56
e 2 181
e 3 226
e 3 118
e 4 144
e 4 118
e 4 75
e 5 224
e 6 146
e 6 249
e 7 94
e 8 37
e 8 210
e 9 106
e 9 238
e 9 138
e 10 101
e 10 91
e 10 103
e 10 149
e 11 245
e 12 50
e 13 19
e 14 114
e 14 266
e 14 166
e 15 232
e 15 23
e 15 230
e 16 89
e 17 136
e 17 25
e 18 69
e 18 85
e 18 40
e 19 86
e 19 171
e 20 211
e 21 91
e 22 259
e 22 38
e 23 201
e 24 204
e 25 193
e 26 213
e 27 77
e 27 176
e 27 247
e 28 228
e 28 198
e 29 127
e 30 46
e 30 70
e 30 129
e 30 50
e 31 171
e 31 109
e 32 169
e 32 93
e 32 240
e 33 251
e 34 258
e 34 161
e 35 205
e 35 38
e 35 123
e 36 187
e 36 214
e 38 157
e 39 100
e 39 129
e 40 260
e 40 59
e 41 51
e 42 194
e 42 234
e 43 211
e 43 275
e 44 244
e 45 104
e 47 122
e 48 167
e 48 146
e 49 237
e 49 110
e 50 59
e 51 52
e 51 213
e 51 138
e 53 147
e 53 207
e 54 107
e 54 240
e 54 167
e 55 204
e 55 119
e 56 201
e 57 116
e 57 260
e 58 145
e 59 89
e 59 264
e 59 196
e 60 90
e 60 242
e 60 166
e 60 81
e 61 270
e 62 247
e 63 233
e 64 91
e 65 132
e 65 123
e 66 99
e 66 265
e 66 191
e 67 124
e 67 195
e 68 153
e 68 95
e 71 133
e 71 255
e 71 123
e 71 234
e 72 233
e 72 203
e 72 230
e 72 91
e 73 231
e 73 261
e 73 247
e 74 188
e 74 123
e 75 248
e 75 272
e 75 153
e 76 84
e 76 128
e 78 221
e 78 165
e 79 80
e 79 170
e 79 268
e 81 204
e 82 196
e 83 131
e 83 200
e 85 207
e 86 95
e 87 115
e 88 168
e 91 154
e 92 270
e 92 156
e 93 234
e 94 163
e 94 150
e 94 160
e 96 262
e 97 250
e 98 160
e 98 103
e 102 135
e 102 173
e 104 176
e 105 194
e 108 139
e 108 252
e 108 168
e 109 241
e 110 266
e 111 112
e 112 122
e 113 184
e 113 146
e 115 244
e 117 227
e 117 151
e 119 127
e 119 160
e 120 213
e 121 186
e 121 243
e 122 187
e 124 198
e 125 152
e 126 156
e 126 269
e 128 226
e 129 179
e 130 161
e 131 148
e 134 197
e 134 246
e 135 249
e 136 137
e 136 214
e 137 219
e 138 193
e 140 262
e 140 263
e 140 152
e 141 218
e 141 255
e 142 158
e 143 173
e 143 211
e 145 223
e 145 210
e 146 192
e 146 216
e 146 224
e 146 241
e 148 253
e 149 206
e 150 183
e 150 273
e 151 251
e 151 264
e 152 248
e 154 210
e 155 187
e 157 222
e 157 268
e 158 253
e 159 161
e 159 193
e 159 226
e 162 260
e 164 239
e 165 268
e 166 189
e 168 265
e 170 182
e 170 244
e 172 247
e 172 187
e 174 200
e 175 224
e 177 258
e 178 190
e 180 250
e 180 267
e 180 230
e 181 244
e 184 215
e 185 269
e 190 227
e 191 220
e 191 256
e 195 242
e 196 244
e 198 209
e 199 236
e 199 224
e 200 246
e 202 240
e 203 208
e 206 246
e 206 221
e 208 239
e 212 232
e 217 224
e 220 243
e 225 257
e 229 244
e 235 269
e 245 274
e 245 273
e 248 254
e 256 263
e 260 271
